(set-logic UF)
(declare-sort Nat_6 0)
(declare-fun Z_21 () Nat_6)
(declare-fun S_3 (Nat_6) Nat_6)
(declare-fun diseqNat_7 (Nat_6 Nat_6) Bool)
(declare-fun min_0 (Nat_6 Nat_6 Nat_6) Bool)
(assert (forall ((x_361 Nat_6))
	(diseqNat_7 Z_21 (S_3 x_361))))
(assert (forall ((x_362 Nat_6))
	(diseqNat_7 (S_3 x_362) Z_21)))
(assert (forall ((x_363 Nat_6) (x_364 Nat_6))
	(=> (diseqNat_7 x_363 x_364) (diseqNat_7 (S_3 x_363) (S_3 x_364)))))
(assert (forall ((x_365 Nat_6) (y_15 Nat_6) (z_22 Nat_6))
	(=> (min_0 x_365 z_22 y_15) (min_0 (S_3 x_365) (S_3 z_22) (S_3 y_15)))))
(assert (forall ((z_23 Nat_6))
	(min_0 Z_21 (S_3 z_23) Z_21)))
(assert (forall ((y_16 Nat_6))
	(min_0 Z_21 Z_21 y_16)))
(assert (forall ((x_366 Nat_6) (x_367 Nat_6) (a_3 Nat_6) (b_4 Nat_6))
	(=> (and (diseqNat_7 x_366 x_367) (min_0 x_366 a_3 b_4) (min_0 x_367 b_4 a_3)) false)))
(check-sat)
(get-model)
